TCS_Benchmarks/redos_fix/regexlib1_output_distinct_3821_3820_138_0.txt
(([\-'A-Za-z]+\s*){1,2})([A-Za-z]+)
(([\-'A-Za-z]+\s*){1,2})([A-Za-z]+)